Route #1: 26 67 46 34 52 27
Route #2: 17 51 6 68 2 30 48
Route #3: 4
Route #4: 45 29 15 57 13 54 19 14
Route #5: 12 40 32 44 3 16 63
Route #6: 7 35 8 53 11 65 38
Route #7: 33 1 43 41 42 64 22 23
Route #8: 39 9 25 55 18 50 24 49
Route #9: 58 10 31 66 59
Route #10: 5 37 20 60 69 36 47 62
Route #11: 28 21 61 56
cost: 964.6447958425957
